p cnf 525 2431
-71 -6 -1 0
-71 6 1 0
71 -6 1 0
71 6 -1 0
-72 -7 -2 0
-72 7 2 0
72 -7 2 0
72 7 -2 0
-73 -8 -3 0
-73 8 3 0
73 -8 3 0
73 8 -3 0
-74 -9 -4 0
-74 9 4 0
74 -9 4 0
74 9 -4 0
-75 -10 -5 0
-75 10 5 0
75 -10 5 0
75 10 -5 0
-71 -72 0
-71 -73 0
-71 -74 0
-71 -75 0
-72 -73 0
-72 -74 0
-72 -75 0
-73 -74 0
-73 -75 0
-74 -75 0
71 72 73 74 75 0
-76 -11 -6 0
-76 11 6 0
76 -11 6 0
76 11 -6 0
-77 -12 -7 0
-77 12 7 0
77 -12 7 0
77 12 -7 0
-78 -13 -8 0
-78 13 8 0
78 -13 8 0
78 13 -8 0
-79 -14 -9 0
-79 14 9 0
79 -14 9 0
79 14 -9 0
-80 -15 -10 0
-80 15 10 0
80 -15 10 0
80 15 -10 0
-76 -77 0
-76 -78 0
-76 -79 0
-76 -80 0
-77 -78 0
-77 -79 0
-77 -80 0
-78 -79 0
-78 -80 0
-79 -80 0
76 77 78 79 80 0
-81 -16 -11 0
-81 16 11 0
81 -16 11 0
81 16 -11 0
-82 -17 -12 0
-82 17 12 0
82 -17 12 0
82 17 -12 0
-83 -18 -13 0
-83 18 13 0
83 -18 13 0
83 18 -13 0
-84 -19 -14 0
-84 19 14 0
84 -19 14 0
84 19 -14 0
-85 -20 -15 0
-85 20 15 0
85 -20 15 0
85 20 -15 0
-81 -82 0
-81 -83 0
-81 -84 0
-81 -85 0
-82 -83 0
-82 -84 0
-82 -85 0
-83 -84 0
-83 -85 0
-84 -85 0
81 82 83 84 85 0
-86 -21 -16 0
-86 21 16 0
86 -21 16 0
86 21 -16 0
-87 -22 -17 0
-87 22 17 0
87 -22 17 0
87 22 -17 0
-88 -23 -18 0
-88 23 18 0
88 -23 18 0
88 23 -18 0
-89 -24 -19 0
-89 24 19 0
89 -24 19 0
89 24 -19 0
-90 -25 -20 0
-90 25 20 0
90 -25 20 0
90 25 -20 0
-86 -87 0
-86 -88 0
-86 -89 0
-86 -90 0
-87 -88 0
-87 -89 0
-87 -90 0
-88 -89 0
-88 -90 0
-89 -90 0
86 87 88 89 90 0
-91 -26 -21 0
-91 26 21 0
91 -26 21 0
91 26 -21 0
-92 -27 -22 0
-92 27 22 0
92 -27 22 0
92 27 -22 0
-93 -28 -23 0
-93 28 23 0
93 -28 23 0
93 28 -23 0
-94 -29 -24 0
-94 29 24 0
94 -29 24 0
94 29 -24 0
-95 -30 -25 0
-95 30 25 0
95 -30 25 0
95 30 -25 0
-91 -92 0
-91 -93 0
-91 -94 0
-91 -95 0
-92 -93 0
-92 -94 0
-92 -95 0
-93 -94 0
-93 -95 0
-94 -95 0
91 92 93 94 95 0
-96 -31 -26 0
-96 31 26 0
96 -31 26 0
96 31 -26 0
-97 -32 -27 0
-97 32 27 0
97 -32 27 0
97 32 -27 0
-98 -33 -28 0
-98 33 28 0
98 -33 28 0
98 33 -28 0
-99 -34 -29 0
-99 34 29 0
99 -34 29 0
99 34 -29 0
-100 -35 -30 0
-100 35 30 0
100 -35 30 0
100 35 -30 0
-96 -97 0
-96 -98 0
-96 -99 0
-96 -100 0
-97 -98 0
-97 -99 0
-97 -100 0
-98 -99 0
-98 -100 0
-99 -100 0
96 97 98 99 100 0
-101 -36 -31 0
-101 36 31 0
101 -36 31 0
101 36 -31 0
-102 -37 -32 0
-102 37 32 0
102 -37 32 0
102 37 -32 0
-103 -38 -33 0
-103 38 33 0
103 -38 33 0
103 38 -33 0
-104 -39 -34 0
-104 39 34 0
104 -39 34 0
104 39 -34 0
-105 -40 -35 0
-105 40 35 0
105 -40 35 0
105 40 -35 0
-101 -102 0
-101 -103 0
-101 -104 0
-101 -105 0
-102 -103 0
-102 -104 0
-102 -105 0
-103 -104 0
-103 -105 0
-104 -105 0
101 102 103 104 105 0
-106 -41 -36 0
-106 41 36 0
106 -41 36 0
106 41 -36 0
-107 -42 -37 0
-107 42 37 0
107 -42 37 0
107 42 -37 0
-108 -43 -38 0
-108 43 38 0
108 -43 38 0
108 43 -38 0
-109 -44 -39 0
-109 44 39 0
109 -44 39 0
109 44 -39 0
-110 -45 -40 0
-110 45 40 0
110 -45 40 0
110 45 -40 0
-106 -107 0
-106 -108 0
-106 -109 0
-106 -110 0
-107 -108 0
-107 -109 0
-107 -110 0
-108 -109 0
-108 -110 0
-109 -110 0
106 107 108 109 110 0
-111 -46 -41 0
-111 46 41 0
111 -46 41 0
111 46 -41 0
-112 -47 -42 0
-112 47 42 0
112 -47 42 0
112 47 -42 0
-113 -48 -43 0
-113 48 43 0
113 -48 43 0
113 48 -43 0
-114 -49 -44 0
-114 49 44 0
114 -49 44 0
114 49 -44 0
-115 -50 -45 0
-115 50 45 0
115 -50 45 0
115 50 -45 0
-111 -112 0
-111 -113 0
-111 -114 0
-111 -115 0
-112 -113 0
-112 -114 0
-112 -115 0
-113 -114 0
-113 -115 0
-114 -115 0
111 112 113 114 115 0
-116 -51 -46 0
-116 51 46 0
116 -51 46 0
116 51 -46 0
-117 -52 -47 0
-117 52 47 0
117 -52 47 0
117 52 -47 0
-118 -53 -48 0
-118 53 48 0
118 -53 48 0
118 53 -48 0
-119 -54 -49 0
-119 54 49 0
119 -54 49 0
119 54 -49 0
-120 -55 -50 0
-120 55 50 0
120 -55 50 0
120 55 -50 0
-116 -117 0
-116 -118 0
-116 -119 0
-116 -120 0
-117 -118 0
-117 -119 0
-117 -120 0
-118 -119 0
-118 -120 0
-119 -120 0
116 117 118 119 120 0
-121 -56 -51 0
-121 56 51 0
121 -56 51 0
121 56 -51 0
-122 -57 -52 0
-122 57 52 0
122 -57 52 0
122 57 -52 0
-123 -58 -53 0
-123 58 53 0
123 -58 53 0
123 58 -53 0
-124 -59 -54 0
-124 59 54 0
124 -59 54 0
124 59 -54 0
-125 -60 -55 0
-125 60 55 0
125 -60 55 0
125 60 -55 0
-121 -122 0
-121 -123 0
-121 -124 0
-121 -125 0
-122 -123 0
-122 -124 0
-122 -125 0
-123 -124 0
-123 -125 0
-124 -125 0
121 122 123 124 125 0
-126 -61 -56 0
-126 61 56 0
126 -61 56 0
126 61 -56 0
-127 -62 -57 0
-127 62 57 0
127 -62 57 0
127 62 -57 0
-128 -63 -58 0
-128 63 58 0
128 -63 58 0
128 63 -58 0
-129 -64 -59 0
-129 64 59 0
129 -64 59 0
129 64 -59 0
-130 -65 -60 0
-130 65 60 0
130 -65 60 0
130 65 -60 0
-126 -127 0
-126 -128 0
-126 -129 0
-126 -130 0
-127 -128 0
-127 -129 0
-127 -130 0
-128 -129 0
-128 -130 0
-129 -130 0
126 127 128 129 130 0
-131 -66 -61 0
-131 66 61 0
131 -66 61 0
131 66 -61 0
-132 -67 -62 0
-132 67 62 0
132 -67 62 0
132 67 -62 0
-133 -68 -63 0
-133 68 63 0
133 -68 63 0
133 68 -63 0
-134 -69 -64 0
-134 69 64 0
134 -69 64 0
134 69 -64 0
-135 -70 -65 0
-135 70 65 0
135 -70 65 0
135 70 -65 0
-131 -132 0
-131 -133 0
-131 -134 0
-131 -135 0
-132 -133 0
-132 -134 0
-132 -135 0
-133 -134 0
-133 -135 0
-134 -135 0
131 132 133 134 135 0
-136 -11 -1 0
-136 11 1 0
136 -11 1 0
136 11 -1 0
-137 -12 -2 0
-137 12 2 0
137 -12 2 0
137 12 -2 0
-138 -13 -3 0
-138 13 3 0
138 -13 3 0
138 13 -3 0
-139 -14 -4 0
-139 14 4 0
139 -14 4 0
139 14 -4 0
-140 -15 -5 0
-140 15 5 0
140 -15 5 0
140 15 -5 0
136 137 138 139 140 0
-136 137 138 139 140 0
136 -137 138 139 140 0
136 137 -138 139 140 0
136 137 138 -139 140 0
136 137 138 139 -140 0
-141 -16 -6 0
-141 16 6 0
141 -16 6 0
141 16 -6 0
-142 -17 -7 0
-142 17 7 0
142 -17 7 0
142 17 -7 0
-143 -18 -8 0
-143 18 8 0
143 -18 8 0
143 18 -8 0
-144 -19 -9 0
-144 19 9 0
144 -19 9 0
144 19 -9 0
-145 -20 -10 0
-145 20 10 0
145 -20 10 0
145 20 -10 0
141 142 143 144 145 0
-141 142 143 144 145 0
141 -142 143 144 145 0
141 142 -143 144 145 0
141 142 143 -144 145 0
141 142 143 144 -145 0
-146 -16 -1 0
-146 16 1 0
146 -16 1 0
146 16 -1 0
-147 -17 -2 0
-147 17 2 0
147 -17 2 0
147 17 -2 0
-148 -18 -3 0
-148 18 3 0
148 -18 3 0
148 18 -3 0
-149 -19 -4 0
-149 19 4 0
149 -19 4 0
149 19 -4 0
-150 -20 -5 0
-150 20 5 0
150 -20 5 0
150 20 -5 0
146 147 148 149 150 0
-146 147 148 149 150 0
146 -147 148 149 150 0
146 147 -148 149 150 0
146 147 148 -149 150 0
146 147 148 149 -150 0
-151 -21 -11 0
-151 21 11 0
151 -21 11 0
151 21 -11 0
-152 -22 -12 0
-152 22 12 0
152 -22 12 0
152 22 -12 0
-153 -23 -13 0
-153 23 13 0
153 -23 13 0
153 23 -13 0
-154 -24 -14 0
-154 24 14 0
154 -24 14 0
154 24 -14 0
-155 -25 -15 0
-155 25 15 0
155 -25 15 0
155 25 -15 0
151 152 153 154 155 0
-151 152 153 154 155 0
151 -152 153 154 155 0
151 152 -153 154 155 0
151 152 153 -154 155 0
151 152 153 154 -155 0
-156 -21 -6 0
-156 21 6 0
156 -21 6 0
156 21 -6 0
-157 -22 -7 0
-157 22 7 0
157 -22 7 0
157 22 -7 0
-158 -23 -8 0
-158 23 8 0
158 -23 8 0
158 23 -8 0
-159 -24 -9 0
-159 24 9 0
159 -24 9 0
159 24 -9 0
-160 -25 -10 0
-160 25 10 0
160 -25 10 0
160 25 -10 0
156 157 158 159 160 0
-156 157 158 159 160 0
156 -157 158 159 160 0
156 157 -158 159 160 0
156 157 158 -159 160 0
156 157 158 159 -160 0
-161 -21 -1 0
-161 21 1 0
161 -21 1 0
161 21 -1 0
-162 -22 -2 0
-162 22 2 0
162 -22 2 0
162 22 -2 0
-163 -23 -3 0
-163 23 3 0
163 -23 3 0
163 23 -3 0
-164 -24 -4 0
-164 24 4 0
164 -24 4 0
164 24 -4 0
-165 -25 -5 0
-165 25 5 0
165 -25 5 0
165 25 -5 0
161 162 163 164 165 0
-161 162 163 164 165 0
161 -162 163 164 165 0
161 162 -163 164 165 0
161 162 163 -164 165 0
161 162 163 164 -165 0
-166 -26 -16 0
-166 26 16 0
166 -26 16 0
166 26 -16 0
-167 -27 -17 0
-167 27 17 0
167 -27 17 0
167 27 -17 0
-168 -28 -18 0
-168 28 18 0
168 -28 18 0
168 28 -18 0
-169 -29 -19 0
-169 29 19 0
169 -29 19 0
169 29 -19 0
-170 -30 -20 0
-170 30 20 0
170 -30 20 0
170 30 -20 0
166 167 168 169 170 0
-166 167 168 169 170 0
166 -167 168 169 170 0
166 167 -168 169 170 0
166 167 168 -169 170 0
166 167 168 169 -170 0
-171 -26 -11 0
-171 26 11 0
171 -26 11 0
171 26 -11 0
-172 -27 -12 0
-172 27 12 0
172 -27 12 0
172 27 -12 0
-173 -28 -13 0
-173 28 13 0
173 -28 13 0
173 28 -13 0
-174 -29 -14 0
-174 29 14 0
174 -29 14 0
174 29 -14 0
-175 -30 -15 0
-175 30 15 0
175 -30 15 0
175 30 -15 0
171 172 173 174 175 0
-171 172 173 174 175 0
171 -172 173 174 175 0
171 172 -173 174 175 0
171 172 173 -174 175 0
171 172 173 174 -175 0
-176 -26 -6 0
-176 26 6 0
176 -26 6 0
176 26 -6 0
-177 -27 -7 0
-177 27 7 0
177 -27 7 0
177 27 -7 0
-178 -28 -8 0
-178 28 8 0
178 -28 8 0
178 28 -8 0
-179 -29 -9 0
-179 29 9 0
179 -29 9 0
179 29 -9 0
-180 -30 -10 0
-180 30 10 0
180 -30 10 0
180 30 -10 0
176 177 178 179 180 0
-176 177 178 179 180 0
176 -177 178 179 180 0
176 177 -178 179 180 0
176 177 178 -179 180 0
176 177 178 179 -180 0
-181 -26 -1 0
-181 26 1 0
181 -26 1 0
181 26 -1 0
-182 -27 -2 0
-182 27 2 0
182 -27 2 0
182 27 -2 0
-183 -28 -3 0
-183 28 3 0
183 -28 3 0
183 28 -3 0
-184 -29 -4 0
-184 29 4 0
184 -29 4 0
184 29 -4 0
-185 -30 -5 0
-185 30 5 0
185 -30 5 0
185 30 -5 0
181 182 183 184 185 0
-181 182 183 184 185 0
181 -182 183 184 185 0
181 182 -183 184 185 0
181 182 183 -184 185 0
181 182 183 184 -185 0
-186 -31 -21 0
-186 31 21 0
186 -31 21 0
186 31 -21 0
-187 -32 -22 0
-187 32 22 0
187 -32 22 0
187 32 -22 0
-188 -33 -23 0
-188 33 23 0
188 -33 23 0
188 33 -23 0
-189 -34 -24 0
-189 34 24 0
189 -34 24 0
189 34 -24 0
-190 -35 -25 0
-190 35 25 0
190 -35 25 0
190 35 -25 0
186 187 188 189 190 0
-186 187 188 189 190 0
186 -187 188 189 190 0
186 187 -188 189 190 0
186 187 188 -189 190 0
186 187 188 189 -190 0
-191 -31 -16 0
-191 31 16 0
191 -31 16 0
191 31 -16 0
-192 -32 -17 0
-192 32 17 0
192 -32 17 0
192 32 -17 0
-193 -33 -18 0
-193 33 18 0
193 -33 18 0
193 33 -18 0
-194 -34 -19 0
-194 34 19 0
194 -34 19 0
194 34 -19 0
-195 -35 -20 0
-195 35 20 0
195 -35 20 0
195 35 -20 0
191 192 193 194 195 0
-191 192 193 194 195 0
191 -192 193 194 195 0
191 192 -193 194 195 0
191 192 193 -194 195 0
191 192 193 194 -195 0
-196 -31 -11 0
-196 31 11 0
196 -31 11 0
196 31 -11 0
-197 -32 -12 0
-197 32 12 0
197 -32 12 0
197 32 -12 0
-198 -33 -13 0
-198 33 13 0
198 -33 13 0
198 33 -13 0
-199 -34 -14 0
-199 34 14 0
199 -34 14 0
199 34 -14 0
-200 -35 -15 0
-200 35 15 0
200 -35 15 0
200 35 -15 0
196 197 198 199 200 0
-196 197 198 199 200 0
196 -197 198 199 200 0
196 197 -198 199 200 0
196 197 198 -199 200 0
196 197 198 199 -200 0
-201 -31 -6 0
-201 31 6 0
201 -31 6 0
201 31 -6 0
-202 -32 -7 0
-202 32 7 0
202 -32 7 0
202 32 -7 0
-203 -33 -8 0
-203 33 8 0
203 -33 8 0
203 33 -8 0
-204 -34 -9 0
-204 34 9 0
204 -34 9 0
204 34 -9 0
-205 -35 -10 0
-205 35 10 0
205 -35 10 0
205 35 -10 0
201 202 203 204 205 0
-201 202 203 204 205 0
201 -202 203 204 205 0
201 202 -203 204 205 0
201 202 203 -204 205 0
201 202 203 204 -205 0
-206 -31 -1 0
-206 31 1 0
206 -31 1 0
206 31 -1 0
-207 -32 -2 0
-207 32 2 0
207 -32 2 0
207 32 -2 0
-208 -33 -3 0
-208 33 3 0
208 -33 3 0
208 33 -3 0
-209 -34 -4 0
-209 34 4 0
209 -34 4 0
209 34 -4 0
-210 -35 -5 0
-210 35 5 0
210 -35 5 0
210 35 -5 0
206 207 208 209 210 0
-206 207 208 209 210 0
206 -207 208 209 210 0
206 207 -208 209 210 0
206 207 208 -209 210 0
206 207 208 209 -210 0
-211 -36 -26 0
-211 36 26 0
211 -36 26 0
211 36 -26 0
-212 -37 -27 0
-212 37 27 0
212 -37 27 0
212 37 -27 0
-213 -38 -28 0
-213 38 28 0
213 -38 28 0
213 38 -28 0
-214 -39 -29 0
-214 39 29 0
214 -39 29 0
214 39 -29 0
-215 -40 -30 0
-215 40 30 0
215 -40 30 0
215 40 -30 0
211 212 213 214 215 0
-211 212 213 214 215 0
211 -212 213 214 215 0
211 212 -213 214 215 0
211 212 213 -214 215 0
211 212 213 214 -215 0
-216 -36 -21 0
-216 36 21 0
216 -36 21 0
216 36 -21 0
-217 -37 -22 0
-217 37 22 0
217 -37 22 0
217 37 -22 0
-218 -38 -23 0
-218 38 23 0
218 -38 23 0
218 38 -23 0
-219 -39 -24 0
-219 39 24 0
219 -39 24 0
219 39 -24 0
-220 -40 -25 0
-220 40 25 0
220 -40 25 0
220 40 -25 0
216 217 218 219 220 0
-216 217 218 219 220 0
216 -217 218 219 220 0
216 217 -218 219 220 0
216 217 218 -219 220 0
216 217 218 219 -220 0
-221 -36 -16 0
-221 36 16 0
221 -36 16 0
221 36 -16 0
-222 -37 -17 0
-222 37 17 0
222 -37 17 0
222 37 -17 0
-223 -38 -18 0
-223 38 18 0
223 -38 18 0
223 38 -18 0
-224 -39 -19 0
-224 39 19 0
224 -39 19 0
224 39 -19 0
-225 -40 -20 0
-225 40 20 0
225 -40 20 0
225 40 -20 0
221 222 223 224 225 0
-221 222 223 224 225 0
221 -222 223 224 225 0
221 222 -223 224 225 0
221 222 223 -224 225 0
221 222 223 224 -225 0
-226 -36 -11 0
-226 36 11 0
226 -36 11 0
226 36 -11 0
-227 -37 -12 0
-227 37 12 0
227 -37 12 0
227 37 -12 0
-228 -38 -13 0
-228 38 13 0
228 -38 13 0
228 38 -13 0
-229 -39 -14 0
-229 39 14 0
229 -39 14 0
229 39 -14 0
-230 -40 -15 0
-230 40 15 0
230 -40 15 0
230 40 -15 0
226 227 228 229 230 0
-226 227 228 229 230 0
226 -227 228 229 230 0
226 227 -228 229 230 0
226 227 228 -229 230 0
226 227 228 229 -230 0
-231 -36 -6 0
-231 36 6 0
231 -36 6 0
231 36 -6 0
-232 -37 -7 0
-232 37 7 0
232 -37 7 0
232 37 -7 0
-233 -38 -8 0
-233 38 8 0
233 -38 8 0
233 38 -8 0
-234 -39 -9 0
-234 39 9 0
234 -39 9 0
234 39 -9 0
-235 -40 -10 0
-235 40 10 0
235 -40 10 0
235 40 -10 0
231 232 233 234 235 0
-231 232 233 234 235 0
231 -232 233 234 235 0
231 232 -233 234 235 0
231 232 233 -234 235 0
231 232 233 234 -235 0
-236 -36 -1 0
-236 36 1 0
236 -36 1 0
236 36 -1 0
-237 -37 -2 0
-237 37 2 0
237 -37 2 0
237 37 -2 0
-238 -38 -3 0
-238 38 3 0
238 -38 3 0
238 38 -3 0
-239 -39 -4 0
-239 39 4 0
239 -39 4 0
239 39 -4 0
-240 -40 -5 0
-240 40 5 0
240 -40 5 0
240 40 -5 0
236 237 238 239 240 0
-236 237 238 239 240 0
236 -237 238 239 240 0
236 237 -238 239 240 0
236 237 238 -239 240 0
236 237 238 239 -240 0
-241 -41 -31 0
-241 41 31 0
241 -41 31 0
241 41 -31 0
-242 -42 -32 0
-242 42 32 0
242 -42 32 0
242 42 -32 0
-243 -43 -33 0
-243 43 33 0
243 -43 33 0
243 43 -33 0
-244 -44 -34 0
-244 44 34 0
244 -44 34 0
244 44 -34 0
-245 -45 -35 0
-245 45 35 0
245 -45 35 0
245 45 -35 0
241 242 243 244 245 0
-241 242 243 244 245 0
241 -242 243 244 245 0
241 242 -243 244 245 0
241 242 243 -244 245 0
241 242 243 244 -245 0
-246 -41 -26 0
-246 41 26 0
246 -41 26 0
246 41 -26 0
-247 -42 -27 0
-247 42 27 0
247 -42 27 0
247 42 -27 0
-248 -43 -28 0
-248 43 28 0
248 -43 28 0
248 43 -28 0
-249 -44 -29 0
-249 44 29 0
249 -44 29 0
249 44 -29 0
-250 -45 -30 0
-250 45 30 0
250 -45 30 0
250 45 -30 0
246 247 248 249 250 0
-246 247 248 249 250 0
246 -247 248 249 250 0
246 247 -248 249 250 0
246 247 248 -249 250 0
246 247 248 249 -250 0
-251 -41 -21 0
-251 41 21 0
251 -41 21 0
251 41 -21 0
-252 -42 -22 0
-252 42 22 0
252 -42 22 0
252 42 -22 0
-253 -43 -23 0
-253 43 23 0
253 -43 23 0
253 43 -23 0
-254 -44 -24 0
-254 44 24 0
254 -44 24 0
254 44 -24 0
-255 -45 -25 0
-255 45 25 0
255 -45 25 0
255 45 -25 0
251 252 253 254 255 0
-251 252 253 254 255 0
251 -252 253 254 255 0
251 252 -253 254 255 0
251 252 253 -254 255 0
251 252 253 254 -255 0
-256 -41 -16 0
-256 41 16 0
256 -41 16 0
256 41 -16 0
-257 -42 -17 0
-257 42 17 0
257 -42 17 0
257 42 -17 0
-258 -43 -18 0
-258 43 18 0
258 -43 18 0
258 43 -18 0
-259 -44 -19 0
-259 44 19 0
259 -44 19 0
259 44 -19 0
-260 -45 -20 0
-260 45 20 0
260 -45 20 0
260 45 -20 0
256 257 258 259 260 0
-256 257 258 259 260 0
256 -257 258 259 260 0
256 257 -258 259 260 0
256 257 258 -259 260 0
256 257 258 259 -260 0
-261 -41 -11 0
-261 41 11 0
261 -41 11 0
261 41 -11 0
-262 -42 -12 0
-262 42 12 0
262 -42 12 0
262 42 -12 0
-263 -43 -13 0
-263 43 13 0
263 -43 13 0
263 43 -13 0
-264 -44 -14 0
-264 44 14 0
264 -44 14 0
264 44 -14 0
-265 -45 -15 0
-265 45 15 0
265 -45 15 0
265 45 -15 0
261 262 263 264 265 0
-261 262 263 264 265 0
261 -262 263 264 265 0
261 262 -263 264 265 0
261 262 263 -264 265 0
261 262 263 264 -265 0
-266 -41 -6 0
-266 41 6 0
266 -41 6 0
266 41 -6 0
-267 -42 -7 0
-267 42 7 0
267 -42 7 0
267 42 -7 0
-268 -43 -8 0
-268 43 8 0
268 -43 8 0
268 43 -8 0
-269 -44 -9 0
-269 44 9 0
269 -44 9 0
269 44 -9 0
-270 -45 -10 0
-270 45 10 0
270 -45 10 0
270 45 -10 0
266 267 268 269 270 0
-266 267 268 269 270 0
266 -267 268 269 270 0
266 267 -268 269 270 0
266 267 268 -269 270 0
266 267 268 269 -270 0
-271 -41 -1 0
-271 41 1 0
271 -41 1 0
271 41 -1 0
-272 -42 -2 0
-272 42 2 0
272 -42 2 0
272 42 -2 0
-273 -43 -3 0
-273 43 3 0
273 -43 3 0
273 43 -3 0
-274 -44 -4 0
-274 44 4 0
274 -44 4 0
274 44 -4 0
-275 -45 -5 0
-275 45 5 0
275 -45 5 0
275 45 -5 0
271 272 273 274 275 0
-271 272 273 274 275 0
271 -272 273 274 275 0
271 272 -273 274 275 0
271 272 273 -274 275 0
271 272 273 274 -275 0
-276 -46 -36 0
-276 46 36 0
276 -46 36 0
276 46 -36 0
-277 -47 -37 0
-277 47 37 0
277 -47 37 0
277 47 -37 0
-278 -48 -38 0
-278 48 38 0
278 -48 38 0
278 48 -38 0
-279 -49 -39 0
-279 49 39 0
279 -49 39 0
279 49 -39 0
-280 -50 -40 0
-280 50 40 0
280 -50 40 0
280 50 -40 0
276 277 278 279 280 0
-276 277 278 279 280 0
276 -277 278 279 280 0
276 277 -278 279 280 0
276 277 278 -279 280 0
276 277 278 279 -280 0
-281 -46 -31 0
-281 46 31 0
281 -46 31 0
281 46 -31 0
-282 -47 -32 0
-282 47 32 0
282 -47 32 0
282 47 -32 0
-283 -48 -33 0
-283 48 33 0
283 -48 33 0
283 48 -33 0
-284 -49 -34 0
-284 49 34 0
284 -49 34 0
284 49 -34 0
-285 -50 -35 0
-285 50 35 0
285 -50 35 0
285 50 -35 0
281 282 283 284 285 0
-281 282 283 284 285 0
281 -282 283 284 285 0
281 282 -283 284 285 0
281 282 283 -284 285 0
281 282 283 284 -285 0
-286 -46 -26 0
-286 46 26 0
286 -46 26 0
286 46 -26 0
-287 -47 -27 0
-287 47 27 0
287 -47 27 0
287 47 -27 0
-288 -48 -28 0
-288 48 28 0
288 -48 28 0
288 48 -28 0
-289 -49 -29 0
-289 49 29 0
289 -49 29 0
289 49 -29 0
-290 -50 -30 0
-290 50 30 0
290 -50 30 0
290 50 -30 0
286 287 288 289 290 0
-286 287 288 289 290 0
286 -287 288 289 290 0
286 287 -288 289 290 0
286 287 288 -289 290 0
286 287 288 289 -290 0
-291 -46 -21 0
-291 46 21 0
291 -46 21 0
291 46 -21 0
-292 -47 -22 0
-292 47 22 0
292 -47 22 0
292 47 -22 0
-293 -48 -23 0
-293 48 23 0
293 -48 23 0
293 48 -23 0
-294 -49 -24 0
-294 49 24 0
294 -49 24 0
294 49 -24 0
-295 -50 -25 0
-295 50 25 0
295 -50 25 0
295 50 -25 0
291 292 293 294 295 0
-291 292 293 294 295 0
291 -292 293 294 295 0
291 292 -293 294 295 0
291 292 293 -294 295 0
291 292 293 294 -295 0
-296 -46 -16 0
-296 46 16 0
296 -46 16 0
296 46 -16 0
-297 -47 -17 0
-297 47 17 0
297 -47 17 0
297 47 -17 0
-298 -48 -18 0
-298 48 18 0
298 -48 18 0
298 48 -18 0
-299 -49 -19 0
-299 49 19 0
299 -49 19 0
299 49 -19 0
-300 -50 -20 0
-300 50 20 0
300 -50 20 0
300 50 -20 0
296 297 298 299 300 0
-296 297 298 299 300 0
296 -297 298 299 300 0
296 297 -298 299 300 0
296 297 298 -299 300 0
296 297 298 299 -300 0
-301 -46 -11 0
-301 46 11 0
301 -46 11 0
301 46 -11 0
-302 -47 -12 0
-302 47 12 0
302 -47 12 0
302 47 -12 0
-303 -48 -13 0
-303 48 13 0
303 -48 13 0
303 48 -13 0
-304 -49 -14 0
-304 49 14 0
304 -49 14 0
304 49 -14 0
-305 -50 -15 0
-305 50 15 0
305 -50 15 0
305 50 -15 0
301 302 303 304 305 0
-301 302 303 304 305 0
301 -302 303 304 305 0
301 302 -303 304 305 0
301 302 303 -304 305 0
301 302 303 304 -305 0
-306 -46 -6 0
-306 46 6 0
306 -46 6 0
306 46 -6 0
-307 -47 -7 0
-307 47 7 0
307 -47 7 0
307 47 -7 0
-308 -48 -8 0
-308 48 8 0
308 -48 8 0
308 48 -8 0
-309 -49 -9 0
-309 49 9 0
309 -49 9 0
309 49 -9 0
-310 -50 -10 0
-310 50 10 0
310 -50 10 0
310 50 -10 0
306 307 308 309 310 0
-306 307 308 309 310 0
306 -307 308 309 310 0
306 307 -308 309 310 0
306 307 308 -309 310 0
306 307 308 309 -310 0
-311 -46 -1 0
-311 46 1 0
311 -46 1 0
311 46 -1 0
-312 -47 -2 0
-312 47 2 0
312 -47 2 0
312 47 -2 0
-313 -48 -3 0
-313 48 3 0
313 -48 3 0
313 48 -3 0
-314 -49 -4 0
-314 49 4 0
314 -49 4 0
314 49 -4 0
-315 -50 -5 0
-315 50 5 0
315 -50 5 0
315 50 -5 0
311 312 313 314 315 0
-311 312 313 314 315 0
311 -312 313 314 315 0
311 312 -313 314 315 0
311 312 313 -314 315 0
311 312 313 314 -315 0
-316 -51 -41 0
-316 51 41 0
316 -51 41 0
316 51 -41 0
-317 -52 -42 0
-317 52 42 0
317 -52 42 0
317 52 -42 0
-318 -53 -43 0
-318 53 43 0
318 -53 43 0
318 53 -43 0
-319 -54 -44 0
-319 54 44 0
319 -54 44 0
319 54 -44 0
-320 -55 -45 0
-320 55 45 0
320 -55 45 0
320 55 -45 0
316 317 318 319 320 0
-316 317 318 319 320 0
316 -317 318 319 320 0
316 317 -318 319 320 0
316 317 318 -319 320 0
316 317 318 319 -320 0
-321 -51 -36 0
-321 51 36 0
321 -51 36 0
321 51 -36 0
-322 -52 -37 0
-322 52 37 0
322 -52 37 0
322 52 -37 0
-323 -53 -38 0
-323 53 38 0
323 -53 38 0
323 53 -38 0
-324 -54 -39 0
-324 54 39 0
324 -54 39 0
324 54 -39 0
-325 -55 -40 0
-325 55 40 0
325 -55 40 0
325 55 -40 0
321 322 323 324 325 0
-321 322 323 324 325 0
321 -322 323 324 325 0
321 322 -323 324 325 0
321 322 323 -324 325 0
321 322 323 324 -325 0
-326 -51 -31 0
-326 51 31 0
326 -51 31 0
326 51 -31 0
-327 -52 -32 0
-327 52 32 0
327 -52 32 0
327 52 -32 0
-328 -53 -33 0
-328 53 33 0
328 -53 33 0
328 53 -33 0
-329 -54 -34 0
-329 54 34 0
329 -54 34 0
329 54 -34 0
-330 -55 -35 0
-330 55 35 0
330 -55 35 0
330 55 -35 0
326 327 328 329 330 0
-326 327 328 329 330 0
326 -327 328 329 330 0
326 327 -328 329 330 0
326 327 328 -329 330 0
326 327 328 329 -330 0
-331 -51 -26 0
-331 51 26 0
331 -51 26 0
331 51 -26 0
-332 -52 -27 0
-332 52 27 0
332 -52 27 0
332 52 -27 0
-333 -53 -28 0
-333 53 28 0
333 -53 28 0
333 53 -28 0
-334 -54 -29 0
-334 54 29 0
334 -54 29 0
334 54 -29 0
-335 -55 -30 0
-335 55 30 0
335 -55 30 0
335 55 -30 0
331 332 333 334 335 0
-331 332 333 334 335 0
331 -332 333 334 335 0
331 332 -333 334 335 0
331 332 333 -334 335 0
331 332 333 334 -335 0
-336 -51 -21 0
-336 51 21 0
336 -51 21 0
336 51 -21 0
-337 -52 -22 0
-337 52 22 0
337 -52 22 0
337 52 -22 0
-338 -53 -23 0
-338 53 23 0
338 -53 23 0
338 53 -23 0
-339 -54 -24 0
-339 54 24 0
339 -54 24 0
339 54 -24 0
-340 -55 -25 0
-340 55 25 0
340 -55 25 0
340 55 -25 0
336 337 338 339 340 0
-336 337 338 339 340 0
336 -337 338 339 340 0
336 337 -338 339 340 0
336 337 338 -339 340 0
336 337 338 339 -340 0
-341 -51 -16 0
-341 51 16 0
341 -51 16 0
341 51 -16 0
-342 -52 -17 0
-342 52 17 0
342 -52 17 0
342 52 -17 0
-343 -53 -18 0
-343 53 18 0
343 -53 18 0
343 53 -18 0
-344 -54 -19 0
-344 54 19 0
344 -54 19 0
344 54 -19 0
-345 -55 -20 0
-345 55 20 0
345 -55 20 0
345 55 -20 0
341 342 343 344 345 0
-341 342 343 344 345 0
341 -342 343 344 345 0
341 342 -343 344 345 0
341 342 343 -344 345 0
341 342 343 344 -345 0
-346 -51 -11 0
-346 51 11 0
346 -51 11 0
346 51 -11 0
-347 -52 -12 0
-347 52 12 0
347 -52 12 0
347 52 -12 0
-348 -53 -13 0
-348 53 13 0
348 -53 13 0
348 53 -13 0
-349 -54 -14 0
-349 54 14 0
349 -54 14 0
349 54 -14 0
-350 -55 -15 0
-350 55 15 0
350 -55 15 0
350 55 -15 0
346 347 348 349 350 0
-346 347 348 349 350 0
346 -347 348 349 350 0
346 347 -348 349 350 0
346 347 348 -349 350 0
346 347 348 349 -350 0
-351 -51 -6 0
-351 51 6 0
351 -51 6 0
351 51 -6 0
-352 -52 -7 0
-352 52 7 0
352 -52 7 0
352 52 -7 0
-353 -53 -8 0
-353 53 8 0
353 -53 8 0
353 53 -8 0
-354 -54 -9 0
-354 54 9 0
354 -54 9 0
354 54 -9 0
-355 -55 -10 0
-355 55 10 0
355 -55 10 0
355 55 -10 0
351 352 353 354 355 0
-351 352 353 354 355 0
351 -352 353 354 355 0
351 352 -353 354 355 0
351 352 353 -354 355 0
351 352 353 354 -355 0
-356 -51 -1 0
-356 51 1 0
356 -51 1 0
356 51 -1 0
-357 -52 -2 0
-357 52 2 0
357 -52 2 0
357 52 -2 0
-358 -53 -3 0
-358 53 3 0
358 -53 3 0
358 53 -3 0
-359 -54 -4 0
-359 54 4 0
359 -54 4 0
359 54 -4 0
-360 -55 -5 0
-360 55 5 0
360 -55 5 0
360 55 -5 0
356 357 358 359 360 0
-356 357 358 359 360 0
356 -357 358 359 360 0
356 357 -358 359 360 0
356 357 358 -359 360 0
356 357 358 359 -360 0
-361 -56 -46 0
-361 56 46 0
361 -56 46 0
361 56 -46 0
-362 -57 -47 0
-362 57 47 0
362 -57 47 0
362 57 -47 0
-363 -58 -48 0
-363 58 48 0
363 -58 48 0
363 58 -48 0
-364 -59 -49 0
-364 59 49 0
364 -59 49 0
364 59 -49 0
-365 -60 -50 0
-365 60 50 0
365 -60 50 0
365 60 -50 0
361 362 363 364 365 0
-361 362 363 364 365 0
361 -362 363 364 365 0
361 362 -363 364 365 0
361 362 363 -364 365 0
361 362 363 364 -365 0
-366 -56 -41 0
-366 56 41 0
366 -56 41 0
366 56 -41 0
-367 -57 -42 0
-367 57 42 0
367 -57 42 0
367 57 -42 0
-368 -58 -43 0
-368 58 43 0
368 -58 43 0
368 58 -43 0
-369 -59 -44 0
-369 59 44 0
369 -59 44 0
369 59 -44 0
-370 -60 -45 0
-370 60 45 0
370 -60 45 0
370 60 -45 0
366 367 368 369 370 0
-366 367 368 369 370 0
366 -367 368 369 370 0
366 367 -368 369 370 0
366 367 368 -369 370 0
366 367 368 369 -370 0
-371 -56 -36 0
-371 56 36 0
371 -56 36 0
371 56 -36 0
-372 -57 -37 0
-372 57 37 0
372 -57 37 0
372 57 -37 0
-373 -58 -38 0
-373 58 38 0
373 -58 38 0
373 58 -38 0
-374 -59 -39 0
-374 59 39 0
374 -59 39 0
374 59 -39 0
-375 -60 -40 0
-375 60 40 0
375 -60 40 0
375 60 -40 0
371 372 373 374 375 0
-371 372 373 374 375 0
371 -372 373 374 375 0
371 372 -373 374 375 0
371 372 373 -374 375 0
371 372 373 374 -375 0
-376 -56 -31 0
-376 56 31 0
376 -56 31 0
376 56 -31 0
-377 -57 -32 0
-377 57 32 0
377 -57 32 0
377 57 -32 0
-378 -58 -33 0
-378 58 33 0
378 -58 33 0
378 58 -33 0
-379 -59 -34 0
-379 59 34 0
379 -59 34 0
379 59 -34 0
-380 -60 -35 0
-380 60 35 0
380 -60 35 0
380 60 -35 0
376 377 378 379 380 0
-376 377 378 379 380 0
376 -377 378 379 380 0
376 377 -378 379 380 0
376 377 378 -379 380 0
376 377 378 379 -380 0
-381 -56 -26 0
-381 56 26 0
381 -56 26 0
381 56 -26 0
-382 -57 -27 0
-382 57 27 0
382 -57 27 0
382 57 -27 0
-383 -58 -28 0
-383 58 28 0
383 -58 28 0
383 58 -28 0
-384 -59 -29 0
-384 59 29 0
384 -59 29 0
384 59 -29 0
-385 -60 -30 0
-385 60 30 0
385 -60 30 0
385 60 -30 0
381 382 383 384 385 0
-381 382 383 384 385 0
381 -382 383 384 385 0
381 382 -383 384 385 0
381 382 383 -384 385 0
381 382 383 384 -385 0
-386 -56 -21 0
-386 56 21 0
386 -56 21 0
386 56 -21 0
-387 -57 -22 0
-387 57 22 0
387 -57 22 0
387 57 -22 0
-388 -58 -23 0
-388 58 23 0
388 -58 23 0
388 58 -23 0
-389 -59 -24 0
-389 59 24 0
389 -59 24 0
389 59 -24 0
-390 -60 -25 0
-390 60 25 0
390 -60 25 0
390 60 -25 0
386 387 388 389 390 0
-386 387 388 389 390 0
386 -387 388 389 390 0
386 387 -388 389 390 0
386 387 388 -389 390 0
386 387 388 389 -390 0
-391 -56 -16 0
-391 56 16 0
391 -56 16 0
391 56 -16 0
-392 -57 -17 0
-392 57 17 0
392 -57 17 0
392 57 -17 0
-393 -58 -18 0
-393 58 18 0
393 -58 18 0
393 58 -18 0
-394 -59 -19 0
-394 59 19 0
394 -59 19 0
394 59 -19 0
-395 -60 -20 0
-395 60 20 0
395 -60 20 0
395 60 -20 0
391 392 393 394 395 0
-391 392 393 394 395 0
391 -392 393 394 395 0
391 392 -393 394 395 0
391 392 393 -394 395 0
391 392 393 394 -395 0
-396 -56 -11 0
-396 56 11 0
396 -56 11 0
396 56 -11 0
-397 -57 -12 0
-397 57 12 0
397 -57 12 0
397 57 -12 0
-398 -58 -13 0
-398 58 13 0
398 -58 13 0
398 58 -13 0
-399 -59 -14 0
-399 59 14 0
399 -59 14 0
399 59 -14 0
-400 -60 -15 0
-400 60 15 0
400 -60 15 0
400 60 -15 0
396 397 398 399 400 0
-396 397 398 399 400 0
396 -397 398 399 400 0
396 397 -398 399 400 0
396 397 398 -399 400 0
396 397 398 399 -400 0
-401 -56 -6 0
-401 56 6 0
401 -56 6 0
401 56 -6 0
-402 -57 -7 0
-402 57 7 0
402 -57 7 0
402 57 -7 0
-403 -58 -8 0
-403 58 8 0
403 -58 8 0
403 58 -8 0
-404 -59 -9 0
-404 59 9 0
404 -59 9 0
404 59 -9 0
-405 -60 -10 0
-405 60 10 0
405 -60 10 0
405 60 -10 0
401 402 403 404 405 0
-401 402 403 404 405 0
401 -402 403 404 405 0
401 402 -403 404 405 0
401 402 403 -404 405 0
401 402 403 404 -405 0
-406 -56 -1 0
-406 56 1 0
406 -56 1 0
406 56 -1 0
-407 -57 -2 0
-407 57 2 0
407 -57 2 0
407 57 -2 0
-408 -58 -3 0
-408 58 3 0
408 -58 3 0
408 58 -3 0
-409 -59 -4 0
-409 59 4 0
409 -59 4 0
409 59 -4 0
-410 -60 -5 0
-410 60 5 0
410 -60 5 0
410 60 -5 0
406 407 408 409 410 0
-406 407 408 409 410 0
406 -407 408 409 410 0
406 407 -408 409 410 0
406 407 408 -409 410 0
406 407 408 409 -410 0
-411 -61 -51 0
-411 61 51 0
411 -61 51 0
411 61 -51 0
-412 -62 -52 0
-412 62 52 0
412 -62 52 0
412 62 -52 0
-413 -63 -53 0
-413 63 53 0
413 -63 53 0
413 63 -53 0
-414 -64 -54 0
-414 64 54 0
414 -64 54 0
414 64 -54 0
-415 -65 -55 0
-415 65 55 0
415 -65 55 0
415 65 -55 0
411 412 413 414 415 0
-411 412 413 414 415 0
411 -412 413 414 415 0
411 412 -413 414 415 0
411 412 413 -414 415 0
411 412 413 414 -415 0
-416 -61 -46 0
-416 61 46 0
416 -61 46 0
416 61 -46 0
-417 -62 -47 0
-417 62 47 0
417 -62 47 0
417 62 -47 0
-418 -63 -48 0
-418 63 48 0
418 -63 48 0
418 63 -48 0
-419 -64 -49 0
-419 64 49 0
419 -64 49 0
419 64 -49 0
-420 -65 -50 0
-420 65 50 0
420 -65 50 0
420 65 -50 0
416 417 418 419 420 0
-416 417 418 419 420 0
416 -417 418 419 420 0
416 417 -418 419 420 0
416 417 418 -419 420 0
416 417 418 419 -420 0
-421 -61 -41 0
-421 61 41 0
421 -61 41 0
421 61 -41 0
-422 -62 -42 0
-422 62 42 0
422 -62 42 0
422 62 -42 0
-423 -63 -43 0
-423 63 43 0
423 -63 43 0
423 63 -43 0
-424 -64 -44 0
-424 64 44 0
424 -64 44 0
424 64 -44 0
-425 -65 -45 0
-425 65 45 0
425 -65 45 0
425 65 -45 0
421 422 423 424 425 0
-421 422 423 424 425 0
421 -422 423 424 425 0
421 422 -423 424 425 0
421 422 423 -424 425 0
421 422 423 424 -425 0
-426 -61 -36 0
-426 61 36 0
426 -61 36 0
426 61 -36 0
-427 -62 -37 0
-427 62 37 0
427 -62 37 0
427 62 -37 0
-428 -63 -38 0
-428 63 38 0
428 -63 38 0
428 63 -38 0
-429 -64 -39 0
-429 64 39 0
429 -64 39 0
429 64 -39 0
-430 -65 -40 0
-430 65 40 0
430 -65 40 0
430 65 -40 0
426 427 428 429 430 0
-426 427 428 429 430 0
426 -427 428 429 430 0
426 427 -428 429 430 0
426 427 428 -429 430 0
426 427 428 429 -430 0
-431 -61 -31 0
-431 61 31 0
431 -61 31 0
431 61 -31 0
-432 -62 -32 0
-432 62 32 0
432 -62 32 0
432 62 -32 0
-433 -63 -33 0
-433 63 33 0
433 -63 33 0
433 63 -33 0
-434 -64 -34 0
-434 64 34 0
434 -64 34 0
434 64 -34 0
-435 -65 -35 0
-435 65 35 0
435 -65 35 0
435 65 -35 0
431 432 433 434 435 0
-431 432 433 434 435 0
431 -432 433 434 435 0
431 432 -433 434 435 0
431 432 433 -434 435 0
431 432 433 434 -435 0
-436 -61 -26 0
-436 61 26 0
436 -61 26 0
436 61 -26 0
-437 -62 -27 0
-437 62 27 0
437 -62 27 0
437 62 -27 0
-438 -63 -28 0
-438 63 28 0
438 -63 28 0
438 63 -28 0
-439 -64 -29 0
-439 64 29 0
439 -64 29 0
439 64 -29 0
-440 -65 -30 0
-440 65 30 0
440 -65 30 0
440 65 -30 0
436 437 438 439 440 0
-436 437 438 439 440 0
436 -437 438 439 440 0
436 437 -438 439 440 0
436 437 438 -439 440 0
436 437 438 439 -440 0
-441 -61 -21 0
-441 61 21 0
441 -61 21 0
441 61 -21 0
-442 -62 -22 0
-442 62 22 0
442 -62 22 0
442 62 -22 0
-443 -63 -23 0
-443 63 23 0
443 -63 23 0
443 63 -23 0
-444 -64 -24 0
-444 64 24 0
444 -64 24 0
444 64 -24 0
-445 -65 -25 0
-445 65 25 0
445 -65 25 0
445 65 -25 0
441 442 443 444 445 0
-441 442 443 444 445 0
441 -442 443 444 445 0
441 442 -443 444 445 0
441 442 443 -444 445 0
441 442 443 444 -445 0
-446 -61 -16 0
-446 61 16 0
446 -61 16 0
446 61 -16 0
-447 -62 -17 0
-447 62 17 0
447 -62 17 0
447 62 -17 0
-448 -63 -18 0
-448 63 18 0
448 -63 18 0
448 63 -18 0
-449 -64 -19 0
-449 64 19 0
449 -64 19 0
449 64 -19 0
-450 -65 -20 0
-450 65 20 0
450 -65 20 0
450 65 -20 0
446 447 448 449 450 0
-446 447 448 449 450 0
446 -447 448 449 450 0
446 447 -448 449 450 0
446 447 448 -449 450 0
446 447 448 449 -450 0
-451 -61 -11 0
-451 61 11 0
451 -61 11 0
451 61 -11 0
-452 -62 -12 0
-452 62 12 0
452 -62 12 0
452 62 -12 0
-453 -63 -13 0
-453 63 13 0
453 -63 13 0
453 63 -13 0
-454 -64 -14 0
-454 64 14 0
454 -64 14 0
454 64 -14 0
-455 -65 -15 0
-455 65 15 0
455 -65 15 0
455 65 -15 0
451 452 453 454 455 0
-451 452 453 454 455 0
451 -452 453 454 455 0
451 452 -453 454 455 0
451 452 453 -454 455 0
451 452 453 454 -455 0
-456 -61 -6 0
-456 61 6 0
456 -61 6 0
456 61 -6 0
-457 -62 -7 0
-457 62 7 0
457 -62 7 0
457 62 -7 0
-458 -63 -8 0
-458 63 8 0
458 -63 8 0
458 63 -8 0
-459 -64 -9 0
-459 64 9 0
459 -64 9 0
459 64 -9 0
-460 -65 -10 0
-460 65 10 0
460 -65 10 0
460 65 -10 0
456 457 458 459 460 0
-456 457 458 459 460 0
456 -457 458 459 460 0
456 457 -458 459 460 0
456 457 458 -459 460 0
456 457 458 459 -460 0
-461 -61 -1 0
-461 61 1 0
461 -61 1 0
461 61 -1 0
-462 -62 -2 0
-462 62 2 0
462 -62 2 0
462 62 -2 0
-463 -63 -3 0
-463 63 3 0
463 -63 3 0
463 63 -3 0
-464 -64 -4 0
-464 64 4 0
464 -64 4 0
464 64 -4 0
-465 -65 -5 0
-465 65 5 0
465 -65 5 0
465 65 -5 0
461 462 463 464 465 0
-461 462 463 464 465 0
461 -462 463 464 465 0
461 462 -463 464 465 0
461 462 463 -464 465 0
461 462 463 464 -465 0
-466 -66 -56 0
-466 66 56 0
466 -66 56 0
466 66 -56 0
-467 -67 -57 0
-467 67 57 0
467 -67 57 0
467 67 -57 0
-468 -68 -58 0
-468 68 58 0
468 -68 58 0
468 68 -58 0
-469 -69 -59 0
-469 69 59 0
469 -69 59 0
469 69 -59 0
-470 -70 -60 0
-470 70 60 0
470 -70 60 0
470 70 -60 0
466 467 468 469 470 0
-466 467 468 469 470 0
466 -467 468 469 470 0
466 467 -468 469 470 0
466 467 468 -469 470 0
466 467 468 469 -470 0
-471 -66 -51 0
-471 66 51 0
471 -66 51 0
471 66 -51 0
-472 -67 -52 0
-472 67 52 0
472 -67 52 0
472 67 -52 0
-473 -68 -53 0
-473 68 53 0
473 -68 53 0
473 68 -53 0
-474 -69 -54 0
-474 69 54 0
474 -69 54 0
474 69 -54 0
-475 -70 -55 0
-475 70 55 0
475 -70 55 0
475 70 -55 0
471 472 473 474 475 0
-471 472 473 474 475 0
471 -472 473 474 475 0
471 472 -473 474 475 0
471 472 473 -474 475 0
471 472 473 474 -475 0
-476 -66 -46 0
-476 66 46 0
476 -66 46 0
476 66 -46 0
-477 -67 -47 0
-477 67 47 0
477 -67 47 0
477 67 -47 0
-478 -68 -48 0
-478 68 48 0
478 -68 48 0
478 68 -48 0
-479 -69 -49 0
-479 69 49 0
479 -69 49 0
479 69 -49 0
-480 -70 -50 0
-480 70 50 0
480 -70 50 0
480 70 -50 0
476 477 478 479 480 0
-476 477 478 479 480 0
476 -477 478 479 480 0
476 477 -478 479 480 0
476 477 478 -479 480 0
476 477 478 479 -480 0
-481 -66 -41 0
-481 66 41 0
481 -66 41 0
481 66 -41 0
-482 -67 -42 0
-482 67 42 0
482 -67 42 0
482 67 -42 0
-483 -68 -43 0
-483 68 43 0
483 -68 43 0
483 68 -43 0
-484 -69 -44 0
-484 69 44 0
484 -69 44 0
484 69 -44 0
-485 -70 -45 0
-485 70 45 0
485 -70 45 0
485 70 -45 0
481 482 483 484 485 0
-481 482 483 484 485 0
481 -482 483 484 485 0
481 482 -483 484 485 0
481 482 483 -484 485 0
481 482 483 484 -485 0
-486 -66 -36 0
-486 66 36 0
486 -66 36 0
486 66 -36 0
-487 -67 -37 0
-487 67 37 0
487 -67 37 0
487 67 -37 0
-488 -68 -38 0
-488 68 38 0
488 -68 38 0
488 68 -38 0
-489 -69 -39 0
-489 69 39 0
489 -69 39 0
489 69 -39 0
-490 -70 -40 0
-490 70 40 0
490 -70 40 0
490 70 -40 0
486 487 488 489 490 0
-486 487 488 489 490 0
486 -487 488 489 490 0
486 487 -488 489 490 0
486 487 488 -489 490 0
486 487 488 489 -490 0
-491 -66 -31 0
-491 66 31 0
491 -66 31 0
491 66 -31 0
-492 -67 -32 0
-492 67 32 0
492 -67 32 0
492 67 -32 0
-493 -68 -33 0
-493 68 33 0
493 -68 33 0
493 68 -33 0
-494 -69 -34 0
-494 69 34 0
494 -69 34 0
494 69 -34 0
-495 -70 -35 0
-495 70 35 0
495 -70 35 0
495 70 -35 0
491 492 493 494 495 0
-491 492 493 494 495 0
491 -492 493 494 495 0
491 492 -493 494 495 0
491 492 493 -494 495 0
491 492 493 494 -495 0
-496 -66 -26 0
-496 66 26 0
496 -66 26 0
496 66 -26 0
-497 -67 -27 0
-497 67 27 0
497 -67 27 0
497 67 -27 0
-498 -68 -28 0
-498 68 28 0
498 -68 28 0
498 68 -28 0
-499 -69 -29 0
-499 69 29 0
499 -69 29 0
499 69 -29 0
-500 -70 -30 0
-500 70 30 0
500 -70 30 0
500 70 -30 0
496 497 498 499 500 0
-496 497 498 499 500 0
496 -497 498 499 500 0
496 497 -498 499 500 0
496 497 498 -499 500 0
496 497 498 499 -500 0
-501 -66 -21 0
-501 66 21 0
501 -66 21 0
501 66 -21 0
-502 -67 -22 0
-502 67 22 0
502 -67 22 0
502 67 -22 0
-503 -68 -23 0
-503 68 23 0
503 -68 23 0
503 68 -23 0
-504 -69 -24 0
-504 69 24 0
504 -69 24 0
504 69 -24 0
-505 -70 -25 0
-505 70 25 0
505 -70 25 0
505 70 -25 0
501 502 503 504 505 0
-501 502 503 504 505 0
501 -502 503 504 505 0
501 502 -503 504 505 0
501 502 503 -504 505 0
501 502 503 504 -505 0
-506 -66 -16 0
-506 66 16 0
506 -66 16 0
506 66 -16 0
-507 -67 -17 0
-507 67 17 0
507 -67 17 0
507 67 -17 0
-508 -68 -18 0
-508 68 18 0
508 -68 18 0
508 68 -18 0
-509 -69 -19 0
-509 69 19 0
509 -69 19 0
509 69 -19 0
-510 -70 -20 0
-510 70 20 0
510 -70 20 0
510 70 -20 0
506 507 508 509 510 0
-506 507 508 509 510 0
506 -507 508 509 510 0
506 507 -508 509 510 0
506 507 508 -509 510 0
506 507 508 509 -510 0
-511 -66 -11 0
-511 66 11 0
511 -66 11 0
511 66 -11 0
-512 -67 -12 0
-512 67 12 0
512 -67 12 0
512 67 -12 0
-513 -68 -13 0
-513 68 13 0
513 -68 13 0
513 68 -13 0
-514 -69 -14 0
-514 69 14 0
514 -69 14 0
514 69 -14 0
-515 -70 -15 0
-515 70 15 0
515 -70 15 0
515 70 -15 0
511 512 513 514 515 0
-511 512 513 514 515 0
511 -512 513 514 515 0
511 512 -513 514 515 0
511 512 513 -514 515 0
511 512 513 514 -515 0
-516 -66 -6 0
-516 66 6 0
516 -66 6 0
516 66 -6 0
-517 -67 -7 0
-517 67 7 0
517 -67 7 0
517 67 -7 0
-518 -68 -8 0
-518 68 8 0
518 -68 8 0
518 68 -8 0
-519 -69 -9 0
-519 69 9 0
519 -69 9 0
519 69 -9 0
-520 -70 -10 0
-520 70 10 0
520 -70 10 0
520 70 -10 0
516 517 518 519 520 0
-516 517 518 519 520 0
516 -517 518 519 520 0
516 517 -518 519 520 0
516 517 518 -519 520 0
516 517 518 519 -520 0
-521 -66 -1 0
-521 66 1 0
521 -66 1 0
521 66 -1 0
-522 -67 -2 0
-522 67 2 0
522 -67 2 0
522 67 -2 0
-523 -68 -3 0
-523 68 3 0
523 -68 3 0
523 68 -3 0
-524 -69 -4 0
-524 69 4 0
524 -69 4 0
524 69 -4 0
-525 -70 -5 0
-525 70 5 0
525 -70 5 0
525 70 -5 0
521 522 523 524 525 0
-521 522 523 524 525 0
521 -522 523 524 525 0
521 522 -523 524 525 0
521 522 523 -524 525 0
521 522 523 524 -525 0
